(set-info :smt-lib-version 2.6)
(set-logic UF)
(set-info :source |Benchmarks from the paper: "Extending Sledgehammer with SMT Solvers" by Jasmin Blanchette, Sascha Bohme, and Lawrence C. Paulson, CADE 2011.  Translated to SMT2 by Andrew Reynolds and Morgan Deters.|)
(set-info :category "industrial")
(set-info :status unsat)
(declare-sort S1 0)
(declare-sort S2 0)
(declare-sort S3 0)
(declare-sort S4 0)
(declare-sort S5 0)
(declare-sort S6 0)
(declare-sort S7 0)
(declare-sort S8 0)
(declare-sort S9 0)
(declare-sort S10 0)
(declare-sort S11 0)
(declare-sort S12 0)
(declare-sort S13 0)
(declare-sort S14 0)
(declare-sort S15 0)
(declare-sort S16 0)
(declare-sort S17 0)
(declare-sort S18 0)
(declare-sort S19 0)
(declare-sort S20 0)
(declare-sort S21 0)
(declare-sort S22 0)
(declare-sort S23 0)
(declare-sort S24 0)
(declare-sort S25 0)
(declare-sort S26 0)
(declare-sort S27 0)
(declare-sort S28 0)
(declare-sort S29 0)
(declare-fun f1 () S1)
(declare-fun f2 () S1)
(declare-fun f3 (S2 S3 S4 S5) S1)
(declare-fun f4 (S6 S4) S7)
(declare-fun f5 (S8 S3) S6)
(declare-fun f6 () S8)
(declare-fun f7 (S9 S5) S7)
(declare-fun f8 () S9)
(declare-fun f9 (S2 S5 S5) S1)
(declare-fun f10 (S10 S11) S12)
(declare-fun f11 (S13 S12) S10)
(declare-fun f12 (S14 S11) S13)
(declare-fun f13 (S15 S10) S14)
(declare-fun f14 () S15)
(declare-fun f15 (S16 S11) S7)
(declare-fun f16 (S17 S7) S16)
(declare-fun f17 (S18 S11) S17)
(declare-fun f18 (S19 S16) S18)
(declare-fun f19 () S19)
(declare-fun f20 (S20 S21) S12)
(declare-fun f21 (S22 S12) S20)
(declare-fun f22 (S23 S21) S22)
(declare-fun f23 (S24 S20) S23)
(declare-fun f24 () S24)
(declare-fun f25 (S25 S4) S12)
(declare-fun f26 () S25)
(declare-fun f27 (S26 S21) S7)
(declare-fun f28 (S27 S7) S26)
(declare-fun f29 (S28 S21) S27)
(declare-fun f30 (S29 S26) S28)
(declare-fun f31 () S29)
(declare-fun f32 (S2 S3 S10 S16) S1)
(declare-fun f33 () S2)
(declare-fun f34 () S3)
(declare-fun f35 () S10)
(declare-fun f36 () S11)
(declare-fun f37 () S4)
(declare-fun f38 () S16)
(declare-fun f39 () S5)
(declare-fun f40 () S10)
(declare-fun f41 () S4)
(declare-fun f42 () S3)
(assert (not (= f1 f2)))
(assert (forall ((?v0 S2) (?v1 S3) (?v2 S4) (?v3 S5)) (= (= (f3 ?v0 ?v1 ?v2 ?v3) f1) (exists ((?v4 S5)) (and (= (f4 (f5 f6 ?v1) ?v2) (f7 f8 ?v4)) (= (f9 ?v0 ?v4 ?v3) f1))))))
(assert (forall ((?v0 S10) (?v1 S11) (?v2 S12) (?v3 S11)) (= (f10 (f11 (f12 (f13 f14 ?v0) ?v1) ?v2) ?v3) (ite (= ?v3 ?v1) ?v2 (f10 ?v0 ?v3)))))
(assert (forall ((?v0 S16) (?v1 S11) (?v2 S7) (?v3 S11)) (= (f15 (f16 (f17 (f18 f19 ?v0) ?v1) ?v2) ?v3) (ite (= ?v3 ?v1) ?v2 (f15 ?v0 ?v3)))))
(assert (forall ((?v0 S20) (?v1 S21) (?v2 S4) (?v3 S21) (?v4 S4)) (let ((?v_1 (f25 f26 ?v4)) (?v_0 (= ?v3 ?v1))) (= (= (f20 (f21 (f22 (f23 f24 ?v0) ?v1) (f25 f26 ?v2)) ?v3) ?v_1) (or (and ?v_0 (= ?v2 ?v4)) (and (not ?v_0) (= (f20 ?v0 ?v3) ?v_1)))))))
(assert (forall ((?v0 S26) (?v1 S21) (?v2 S5) (?v3 S21) (?v4 S5)) (let ((?v_1 (f7 f8 ?v4)) (?v_0 (= ?v3 ?v1))) (= (= (f27 (f28 (f29 (f30 f31 ?v0) ?v1) (f7 f8 ?v2)) ?v3) ?v_1) (or (and ?v_0 (= ?v2 ?v4)) (and (not ?v_0) (= (f27 ?v0 ?v3) ?v_1)))))))
(assert (forall ((?v0 S10) (?v1 S11) (?v2 S4) (?v3 S11) (?v4 S4)) (let ((?v_1 (f25 f26 ?v4)) (?v_0 (= ?v3 ?v1))) (= (= (f10 (f11 (f12 (f13 f14 ?v0) ?v1) (f25 f26 ?v2)) ?v3) ?v_1) (or (and ?v_0 (= ?v2 ?v4)) (and (not ?v_0) (= (f10 ?v0 ?v3) ?v_1)))))))
(assert (forall ((?v0 S16) (?v1 S11) (?v2 S5) (?v3 S11) (?v4 S5)) (let ((?v_1 (f7 f8 ?v4)) (?v_0 (= ?v3 ?v1))) (= (= (f15 (f16 (f17 (f18 f19 ?v0) ?v1) (f7 f8 ?v2)) ?v3) ?v_1) (or (and ?v_0 (= ?v2 ?v4)) (and (not ?v_0) (= (f15 ?v0 ?v3) ?v_1)))))))
(assert (forall ((?v0 S10) (?v1 S11) (?v2 S12)) (= (f10 (f11 (f12 (f13 f14 ?v0) ?v1) ?v2) ?v1) ?v2)))
(assert (forall ((?v0 S16) (?v1 S11) (?v2 S7)) (= (f15 (f16 (f17 (f18 f19 ?v0) ?v1) ?v2) ?v1) ?v2)))
(assert (= (f32 f33 f34 (f11 (f12 (f13 f14 f35) f36) (f25 f26 f37)) (f16 (f17 (f18 f19 f38) f36) (f7 f8 f39))) f1))
(assert (forall ((?v0 S2) (?v1 S3) (?v2 S10) (?v3 S16)) (= (= (f32 ?v0 ?v1 ?v2 ?v3) f1) (forall ((?v4 S11) (?v5 S4)) (=> (= (f10 ?v2 ?v4) (f25 f26 ?v5)) (exists ((?v6 S5)) (and (= (f15 ?v3 ?v4) (f7 f8 ?v6)) (= (f3 ?v0 ?v1 ?v5 ?v6) f1))))))))
(assert (forall ((?v0 S4) (?v1 S4)) (= (= (f25 f26 ?v0) (f25 f26 ?v1)) (= ?v0 ?v1))))
(assert (forall ((?v0 S5) (?v1 S5)) (= (= (f7 f8 ?v0) (f7 f8 ?v1)) (= ?v0 ?v1))))
(assert (not (=> (= (f10 f40 f36) (f25 f26 f41)) (=> (= (f32 f33 f42 f40 (f16 (f17 (f18 f19 f38) f36) (f7 f8 f39))) f1) (exists ((?v0 S5)) (and (= (f4 (f5 f6 f42) f41) (f7 f8 ?v0)) (= (f9 f33 ?v0 f39) f1)))))))
(check-sat)
(exit)
